50	48748

860 3286
739 3104
454 2537
63 996
347 2251
687 3017
774 3160
584 2824
897 3336
220 1823
907 3349
187 1688
50 888
155 1543
469 2573
324 2182
196 1726
94 1211
930 3379
397 2391
149 1514
844 3264
119 1359
145 1495
947 3400
675 2996
417 2444
524 2699
199 1739
391 2375
30 690
541 2735
625 2904
387 2364
775 3161
663 2974
551 2757
579 2814
846 3266
755 3130
34 734
733 3094
822 3232
400 2400
343 2239
893 3331
498 2641
167 1600
352 2266
636 2925
